\* Problem: Unknown *\

Maximize
 obj: + xp_0_0 + xp_1_0 + xp_1_1 + xp_2_0 + xp_2_1 + xp_3_0 + xp_3_1
 + xp_4_0 + xp_5_0 + xp_5_1 + xp_6_0 + xp_7_0 + xp_8_0 + xp_9_0 + xp_9_1
 + xp_10_0 + xp_11_0 + xp_11_1 + xp_12_0 + xp_12_1 + xp_13_0 + xp_13_1
 + xp_14_0 + xp_14_1 + xp_15_0 + xp_16_0 + xp_17_0 + xp_17_1 + xp_18_0
 + xp_18_1 + xp_18_2 + xp_19_0 + xp_19_1 + xp_20_0 + xp_21_0 + xp_22_0
 + xp_22_1 + xp_23_0 + xp_24_0 + xp_24_1 + xp_24_2 + xp_24_3 + xp_25_0
 + xp_26_0 + xp_26_1 + xp_26_2 + xp_27_0 + xp_27_1 + xp_28_0 + xp_28_1
 + xp_29_0 + xp_30_0 + xp_30_1 + xp_31_0 + xp_32_0 + xp_32_1 + xp_33_0
 + xp_34_0 + xp_34_1 + xp_35_0 + xp_36_0 + xp_37_0 + xp_38_0 + xp_38_1
 + xp_39_0 + xp_40_0 + xp_40_1 + xp_40_2 + xp_41_0 + xp_41_1 + xp_42_0
 + xp_42_1 + xp_43_0 + xp_44_0 + xp_44_1 + xp_45_0 + xp_45_1 + xp_45_2
 + xp_46_0 + xp_47_0 + xp_48_0 + xp_48_1 + xp_49_0 + xp_50_0 + xp_50_1
 + xp_51_0 + xp_52_0 + xp_53_0 + xp_53_1 + xp_54_0 + xp_55_0 + xp_56_0
 + xp_57_0 + xp_58_0 + xp_58_1 + xp_59_0 + xp_60_0 + xp_60_1 + xp_61_0
 + xp_61_1 + xp_62_0 + xp_63_0 + xp_63_1 + xp_64_0 + xp_65_0 + xp_66_0
 + xp_67_0 + xp_67_1 + xp_68_0 + xp_68_1 + xp_68_2 + xp_69_0 + xp_70_0
 + xp_71_0 + xp_72_0 + xp_73_0 + xp_74_0 + xp_75_0 + xp_76_0 + xp_77_0
 + xp_77_1 + xp_78_0 + xp_78_1 + xp_78_2 + xp_79_0 + xp_79_1 + xp_79_2
 + xp_80_0 + xp_80_1 + xp_81_0 + xp_81_1 + xp_82_0 + xp_82_1 + xp_82_2
 + xp_83_0 + xp_83_1 + xp_84_0 + xp_85_0 + xp_85_1 + xp_85_2 + xp_85_3
 + xp_86_0 + xp_87_0 + xp_88_0 + xp_88_1 + xp_89_0 + xp_90_0 + xp_90_1
 + xp_90_2 + xp_91_0 + xp_91_1 + xp_91_2 + xp_92_0 + xp_92_1 + xp_92_2
 + xp_93_0 + xp_94_0 + xp_94_1 + xp_94_2 + xp_95_0 + xp_95_1 + xp_95_2
 + xp_96_0 + xp_96_1 + xp_97_0 + xp_98_0 + xp_98_1 + xp_98_2 + xp_98_3
 + xp_99_0 + xp_99_1 + xp_99_2 + xp_100_0 + xp_101_0 + xp_101_1
 + xp_102_0 + xp_103_0 + xp_104_0 + xp_104_1 + xp_105_0 + xp_105_1
 + xp_106_0 + xp_106_1 + xp_107_0 + xp_108_0 + xp_108_1 + xp_109_0
 + xp_109_1 + xp_110_0 + xp_111_0 + xp_112_0 + xp_112_1 + xp_113_0
 + xp_114_0 + xp_115_0 + xp_115_1 + xp_116_0 + xp_116_1 + xp_117_0
 + xp_118_0 + xp_119_0 + xp_119_1 + xp_119_2 + xp_120_0 + xp_120_1
 + xp_121_0 + xp_122_0 + xp_123_0 + xp_123_1 + xp_124_0 + xp_125_0
 + xp_125_1 + xp_126_0 + xp_126_1 + xp_126_2 + xp_127_0 + xp_127_1
 + xp_128_0 + xp_128_1 + xp_129_0 + xp_129_1 + xp_130_0 + xp_131_0
 + xp_131_1 + xp_131_2

Subject To
 r_1: + xp_128_1 + xp_123_1 + xp_122_0 + xp_121_0 + xp_108_1 + xp_107_0
 + xp_78_2 + xp_67_1 + xp_40_2 + xp_40_1 + xp_25_0 + xp_22_1 + xp_18_2
 + xp_18_1 + xp_16_0 + xp_13_1 + xp_4_0 <= 37866.6666666667
 r_2: + xp_131_2 + xp_131_0 + xp_127_0 + xp_126_1 + xp_120_0 + xp_94_1
 + xp_93_0 + xp_90_2 + xp_85_3 + xp_85_2 + xp_85_1 + xp_85_0 + xp_77_1
 + xp_75_0 + xp_71_0 + xp_66_0 + xp_65_0 + xp_61_1 + xp_55_0 + xp_52_0
 + xp_48_1 + xp_48_0 + xp_42_1 + xp_38_1 + xp_32_0 + xp_28_1 + xp_28_0
 + xp_24_3 + xp_24_1 + xp_24_0 + xp_19_1 + xp_19_0 + xp_12_1 + xp_1_1
 <= 34909.426987061
 r_3: + xp_114_0 + xp_105_1 + xp_98_3 + xp_95_1 + xp_94_2 + xp_92_2
 + xp_91_1 + xp_85_3 + xp_83_1 + xp_79_1 + xp_76_0 + xp_68_2 + xp_41_1
 + xp_40_1 + xp_34_0 + xp_26_2 + xp_24_3 <= 37043.4782608696
 r_4: + xp_119_2 + xp_117_0 + xp_104_1 + xp_95_2 + xp_95_0 + xp_91_2
 + xp_91_0 + xp_88_1 + xp_84_0 + xp_82_2 + xp_79_2 + xp_79_0 + xp_46_0
 + xp_44_1 + xp_43_0 + xp_40_2 + xp_40_0 + xp_34_1 + xp_27_1 + xp_18_2
 <= 35686.9315461944
 r_5: + xp_130_0 + xp_119_2 + xp_104_1 + xp_99_0 + xp_88_1 + xp_82_2
 + xp_44_1 + xp_27_1 + xp_18_2 + xp_7_0 + xp_2_0 <= 37043.4782608696
 r_6: + xp_126_2 + xp_119_0 + xp_114_0 + xp_95_1 + xp_92_2 + xp_92_1
 + xp_91_1 + xp_83_1 + xp_83_0 + xp_82_1 + xp_81_0 + xp_79_1 + xp_70_0
 + xp_68_2 + xp_68_1 + xp_58_1 + xp_53_0 + xp_48_1 + xp_45_0 + xp_40_1
 + xp_34_0 + xp_32_1 + xp_30_1 + xp_18_1 + xp_5_1 <= 39033.1753554502
 r_7: + xp_119_1 + xp_112_1 + xp_104_0 + xp_88_0 + xp_82_0 + xp_81_1
 + xp_78_1 + xp_53_1 + xp_50_1 + xp_45_2 + xp_45_1 + xp_44_0 + xp_27_0
 + xp_18_0 + xp_3_1 <= 35686.9315461944
 r_8: + xp_131_2 + xp_131_0 + xp_127_0 + xp_126_1 + xp_120_0 + xp_118_0
 + xp_103_0 + xp_94_1 + xp_90_2 + xp_77_1 + xp_71_0 + xp_61_1 + xp_55_0
 + xp_42_1 + xp_38_1 + xp_32_0 + xp_24_3 + xp_24_1 + xp_24_0 + xp_12_1
 + xp_1_1 <= 37866.6666666667
 r_9: + xp_131_1 + xp_127_1 + xp_123_1 + xp_122_0 + xp_120_1 + xp_108_1
 + xp_78_2 + xp_77_0 + xp_67_1 + xp_42_0 + xp_33_0 + xp_32_1 + xp_24_2
 <= 40000
 r_10: + xp_112_1 + xp_106_0 + xp_99_0 + xp_98_0 + xp_88_1 + xp_88_0
 + xp_85_0 + xp_78_1 + xp_50_1 + xp_26_0 + xp_24_0 + xp_8_0 + xp_7_0
 + xp_3_1 + xp_2_0 <= 39033.1753554502
 r_11: + xp_119_0 + xp_112_0 + xp_111_0 + xp_95_1 + xp_91_1 + xp_82_1
 + xp_81_0 + xp_79_1 + xp_78_2 + xp_78_0 + xp_59_0 + xp_53_0 + xp_50_0
 + xp_49_0 + xp_45_0 + xp_40_1 + xp_34_0 + xp_18_1 + xp_4_0 + xp_3_0
 <= 36134.2717920953
 r_12: + xp_129_1 + xp_128_0 + xp_123_0 + xp_119_1 + xp_117_0 + xp_112_1
 + xp_101_0 + xp_95_0 + xp_91_2 + xp_82_2 + xp_82_0 + xp_81_1 + xp_80_1
 + xp_79_2 + xp_78_1 + xp_78_0 + xp_73_0 + xp_63_1 + xp_60_1 + xp_50_1
 + xp_46_0 + xp_45_1 + xp_44_1 + xp_44_0 + xp_40_0 + xp_18_0 + xp_17_1
 + xp_15_0 + xp_14_0 + xp_13_0 + xp_9_0 <= 35837.0814592704
 r_13: + xp_129_0 + xp_128_1 + xp_123_1 + xp_120_1 + xp_119_2 + xp_109_1
 + xp_101_1 + xp_100_0 + xp_96_1 + xp_95_2 + xp_91_0 + xp_90_0 + xp_80_0
 + xp_79_0 + xp_68_0 + xp_63_0 + xp_60_0 + xp_53_1 + xp_45_2 + xp_40_2
 + xp_34_1 + xp_31_0 + xp_30_0 + xp_18_2 + xp_17_0 + xp_13_1 + xp_9_1
 <= 36134.2717920953
 r_14: + xp_131_2 + xp_131_1 + xp_131_0 + xp_126_2 + xp_125_1 + xp_125_0
 + xp_124_0 + xp_115_1 + xp_115_0 + xp_106_1 + xp_99_2 + xp_99_1
 + xp_98_3 + xp_98_2 + xp_98_1 + xp_94_2 + xp_94_1 + xp_94_0 + xp_92_2
 + xp_92_1 + xp_86_0 + xp_85_3 + xp_85_2 + xp_85_1 + xp_77_1 + xp_77_0
 + xp_68_2 + xp_68_1 + xp_65_0 + xp_58_1 + xp_56_0 + xp_51_0 + xp_48_1
 + xp_41_1 + xp_41_0 + xp_38_1 + xp_38_0 + xp_35_0 + xp_32_1 + xp_30_1
 + xp_26_2 + xp_26_1 + xp_24_3 + xp_24_2 + xp_24_1 + xp_20_0 + xp_19_1
 + xp_19_0 + xp_12_1 + xp_12_0 + xp_5_1 + xp_2_1 + xp_0_0
 <= 35686.9315461944
 r_15: + xp_131_1 + xp_131_0 + xp_126_2 + xp_125_0 + xp_124_0 + xp_120_1
 + xp_116_0 + xp_115_0 + xp_109_1 + xp_99_1 + xp_98_3 + xp_98_1
 + xp_96_1 + xp_94_2 + xp_94_0 + xp_92_2 + xp_92_1 + xp_90_0 + xp_89_0
 + xp_86_0 + xp_85_3 + xp_85_1 + xp_77_1 + xp_77_0 + xp_68_2 + xp_68_1
 + xp_68_0 + xp_65_0 + xp_58_1 + xp_51_0 + xp_48_1 + xp_42_1 + xp_42_0
 + xp_38_1 + xp_38_0 + xp_36_0 + xp_32_1 + xp_28_0 + xp_26_1 + xp_24_3
 + xp_24_2 + xp_24_1 + xp_19_1 + xp_12_0 + xp_11_1 + xp_0_0
 <= 35837.0814592704
 r_16: + xp_128_0 + xp_123_0 + xp_108_0 + xp_78_1 + xp_78_0 + xp_73_0
 + xp_67_0 + xp_57_0 + xp_46_0 + xp_44_1 + xp_44_0 + xp_40_0 + xp_22_0
 + xp_18_0 + xp_13_0 + xp_6_0 <= 35837.0814592704
 r_17: + xp_129_1 + xp_126_0 + xp_119_1 + xp_112_1 + xp_109_0 + xp_97_0
 + xp_95_0 + xp_91_2 + xp_90_1 + xp_81_1 + xp_80_1 + xp_79_2 + xp_63_1
 + xp_62_0 + xp_61_0 + xp_60_1 + xp_47_0 + xp_45_1 + xp_22_1 + xp_17_1
 + xp_9_0 + xp_1_0 <= 34909.426987061
 r_18: + xp_126_1 + xp_126_0 + xp_106_0 + xp_99_0 + xp_98_0 + xp_92_0
 + xp_85_0 + xp_68_0 + xp_58_0 + xp_48_0 + xp_32_0 + xp_30_0 + xp_26_0
 + xp_24_0 + xp_5_0 + xp_2_0 <= 36134.2717920953
 r_19: + xp_131_2 + xp_125_1 + xp_116_1 + xp_115_1 + xp_110_0 + xp_106_1
 + xp_99_2 + xp_98_2 + xp_94_1 + xp_85_2 + xp_78_0 + xp_56_0 + xp_28_1
 + xp_26_2 + xp_19_0 + xp_14_0 + xp_12_1 + xp_11_0 + xp_5_1 + xp_3_0
 + xp_2_1 <= 36134.2717920953
 r_20: + xp_129_0 + xp_128_1 + xp_123_1 + xp_119_2 + xp_119_0 + xp_112_0
 + xp_111_0 + xp_108_1 + xp_108_0 + xp_107_0 + xp_101_1 + xp_95_2
 + xp_95_1 + xp_91_1 + xp_91_0 + xp_82_1 + xp_81_0 + xp_80_0 + xp_79_1
 + xp_79_0 + xp_78_2 + xp_69_0 + xp_64_0 + xp_63_0 + xp_60_0 + xp_50_0
 + xp_49_0 + xp_45_2 + xp_45_0 + xp_40_2 + xp_40_1 + xp_18_2 + xp_18_1
 + xp_17_0 + xp_14_1 + xp_13_1 + xp_10_0 + xp_9_1 + xp_4_0
 <= 34909.426987061
 r_21: + xp_113_0 + xp_105_1 + xp_99_2 + xp_99_1 + xp_98_3 + xp_94_2
 + xp_92_2 + xp_86_0 + xp_85_3 + xp_83_1 + xp_77_1 + xp_77_0 + xp_68_2
 + xp_65_0 + xp_41_1 + xp_38_1 + xp_38_0 + xp_26_2 + xp_24_3 + xp_20_0
 + xp_2_1 + xp_0_0 <= 35686.9315461944
 r_22: + xp_126_2 + xp_124_0 + xp_106_1 + xp_105_0 + xp_98_2 + xp_98_1
 + xp_94_1 + xp_94_0 + xp_92_1 + xp_85_2 + xp_85_1 + xp_83_0 + xp_68_1
 + xp_58_1 + xp_48_1 + xp_41_0 + xp_32_1 + xp_30_1 + xp_26_1 + xp_24_2
 + xp_24_1 + xp_5_1 <= 35686.9315461944
 r_23: + xp_128_1 + xp_128_0 + xp_119_2 + xp_119_1 + xp_117_0 + xp_112_1
 + xp_104_1 + xp_104_0 + xp_100_0 + xp_95_2 + xp_95_0 + xp_91_2
 + xp_91_0 + xp_84_0 + xp_82_2 + xp_82_0 + xp_81_1 + xp_80_1 + xp_80_0
 + xp_79_2 + xp_79_0 + xp_78_1 + xp_73_0 + xp_60_1 + xp_60_0 + xp_53_1
 + xp_50_1 + xp_46_0 + xp_45_2 + xp_45_1 + xp_44_1 + xp_44_0 + xp_40_2
 + xp_40_0 + xp_34_1 + xp_21_0 + xp_18_2 + xp_18_0 + xp_15_0 + xp_9_1
 + xp_9_0 + xp_3_1 <= 35686.9315461944
 r_24: + xp_128_0 + xp_126_1 + xp_103_0 + xp_94_1 + xp_90_2 + xp_61_1
 + xp_40_0 + xp_39_0 + xp_38_1 + xp_22_0 + xp_18_0 + xp_13_0 + xp_12_1
 + xp_1_1 <= 40000
 r_25: + xp_131_1 + xp_127_1 + xp_126_2 + xp_126_0 + xp_120_1 + xp_94_2
 + xp_94_0 + xp_90_1 + xp_90_0 + xp_89_0 + xp_77_0 + xp_74_0 + xp_61_0
 + xp_42_0 + xp_38_0 + xp_32_1 + xp_24_2 + xp_12_0 + xp_1_0
 <= 35837.0814592704
 r_26: + xp_128_1 + xp_123_1 + xp_121_0 + xp_112_1 + xp_112_0 + xp_108_1
 + xp_107_0 + xp_81_1 + xp_81_0 + xp_79_2 + xp_79_1 + xp_79_0 + xp_78_2
 + xp_67_1 + xp_64_0 + xp_60_1 + xp_60_0 + xp_47_0 + xp_40_2 + xp_40_1
 + xp_37_0 + xp_29_0 + xp_25_0 + xp_22_1 + xp_18_2 + xp_18_1 + xp_17_1
 + xp_17_0 + xp_13_1 + xp_4_0 <= 34909.426987061
 r_27: + xp_131_0 + xp_127_0 + xp_125_0 + xp_116_0 + xp_115_0 + xp_108_0
 + xp_101_1 + xp_99_1 + xp_98_3 + xp_98_1 + xp_96_1 + xp_92_2 + xp_92_1
 + xp_86_0 + xp_85_3 + xp_85_1 + xp_82_1 + xp_77_1 + xp_72_0 + xp_67_0
 + xp_65_0 + xp_58_1 + xp_57_0 + xp_52_0 + xp_50_0 + xp_48_1 + xp_42_1
 + xp_38_1 + xp_28_0 + xp_26_1 + xp_24_3 + xp_24_1 + xp_23_0 + xp_19_1
 + xp_14_1 + xp_11_1 <= 34909.426987061
 r_28: + xp_131_2 + xp_126_1 + xp_126_0 + xp_125_1 + xp_120_0 + xp_116_1
 + xp_115_1 + xp_109_0 + xp_99_2 + xp_99_0 + xp_98_2 + xp_98_0 + xp_96_0
 + xp_94_1 + xp_92_0 + xp_90_2 + xp_90_1 + xp_85_2 + xp_85_0 + xp_75_0
 + xp_58_0 + xp_54_0 + xp_48_0 + xp_32_0 + xp_28_1 + xp_26_2 + xp_26_0
 + xp_24_0 + xp_19_0 + xp_12_1 + xp_11_0 <= 34909.426987061
 r_29: + xp_129_1 + xp_129_0 + xp_95_2 + xp_95_1 + xp_95_0 + xp_93_0
 + xp_87_0 + xp_71_0 + xp_62_0 + xp_49_0 + xp_45_2 + xp_45_1 + xp_45_0
 + xp_10_0 + xp_9_1 + xp_9_0 + xp_1_1 + xp_1_0 <= 34909.426987061
 r_30: + xp_125_1 + xp_125_0 + xp_121_0 + xp_102_0 + xp_99_2 + xp_99_1
 + xp_99_0 + xp_96_1 + xp_96_0 + xp_92_2 + xp_92_1 + xp_92_0 + xp_57_0
 + xp_37_0 + xp_26_2 + xp_26_1 + xp_26_0 + xp_23_0 + xp_11_1 + xp_11_0
 <= 34909.426987061

Bounds
 0 <= xp_0_0 <= 224.408709690664
 0 <= xp_1_0 <= 104.180803213934
 0 <= xp_1_1 <= 69.4538688092893
 0 <= xp_2_0 <= 21.8767149949837
 0 <= xp_2_1 <= 87.5068599799348
 0 <= xp_3_0 <= 104.030361620845
 0 <= xp_3_1 <= 69.3535744138968
 0 <= xp_4_0 <= 750.264761532837
 0 <= xp_5_0 <= 824.26948853306
 0 <= xp_5_1 <= 206.067372133265
 0 <= xp_6_0 <= 1704.18982970952
 0 <= xp_7_0 <= 607.031828112958
 0 <= xp_8_0 <= 1435.83963803753
 0 <= xp_9_0 <= 41.1708493086112
 0 <= xp_9_1 <= 61.7562739629168
 0 <= xp_10_0 <= 52.1530856040872
 0 <= xp_11_0 <= 15.7963672743149
 0 <= xp_11_1 <= 23.6945509114723
 0 <= xp_12_0 <= 1572.7665613471
 0 <= xp_12_1 <= 393.191640336776
 0 <= xp_13_0 <= 143.784552594538
 0 <= xp_13_1 <= 95.8563683963584
 0 <= xp_14_0 <= 41.8352996780863
 0 <= xp_14_1 <= 167.341198712345
 0 <= xp_15_0 <= 482.290673843566
 0 <= xp_16_0 <= 2511.68508061319
 0 <= xp_17_0 <= 226.013420016943
 0 <= xp_17_1 <= 56.5033550042359
 0 <= xp_18_0 <= 204.863839388555
 0 <= xp_18_1 <= 68.2879464628517
 0 <= xp_18_2 <= 68.2879464628517
 0 <= xp_19_0 <= 402.732144698485
 0 <= xp_19_1 <= 604.098217047728
 0 <= xp_20_0 <= 121.983058396098
 0 <= xp_21_0 <= 261.078848006038
 0 <= xp_22_0 <= 937.501860931165
 0 <= xp_22_1 <= 234.375465232791
 0 <= xp_23_0 <= 49.4576737279145
 0 <= xp_24_0 <= 64.8027162229632
 0 <= xp_24_1 <= 64.8027162229632
 0 <= xp_24_2 <= 129.605432445926
 0 <= xp_24_3 <= 64.8027162229632
 0 <= xp_25_0 <= 550.55354670757
 0 <= xp_26_0 <= 2.92107426580585
 0 <= xp_26_1 <= 8.76322279741754
 0 <= xp_26_2 <= 2.92107426580585
 0 <= xp_27_0 <= 257.154829786307
 0 <= xp_27_1 <= 64.2887074465768
 0 <= xp_28_0 <= 507.991112662888
 0 <= xp_28_1 <= 126.997778165722
 0 <= xp_29_0 <= 2328.71049301904
 0 <= xp_30_0 <= 69.7798255943148
 0 <= xp_30_1 <= 104.669738391472
 0 <= xp_31_0 <= 181.34480366902
 0 <= xp_32_0 <= 1285.03447776552
 0 <= xp_32_1 <= 856.689651843677
 0 <= xp_33_0 <= 7667.94531573459
 0 <= xp_34_0 <= 97.2103427341569
 0 <= xp_34_1 <= 388.841370936627
 0 <= xp_35_0 <= 248.353996590617
 0 <= xp_36_0 <= 303.453230059359
 0 <= xp_37_0 <= 347.143976052206
 0 <= xp_38_0 <= 254.84805869228
 0 <= xp_38_1 <= 63.71201467307
 0 <= xp_39_0 <= 1497.01921922694
 0 <= xp_40_0 <= 484.760423330106
 0 <= xp_40_1 <= 161.586807776702
 0 <= xp_40_2 <= 161.586807776702
 0 <= xp_41_0 <= 60.8285508055364
 0 <= xp_41_1 <= 15.2071377013841
 0 <= xp_42_0 <= 86.4286952294657
 0 <= xp_42_1 <= 345.714780917863
 0 <= xp_43_0 <= 468.1867744915
 0 <= xp_44_0 <= 349.074643163511
 0 <= xp_44_1 <= 87.2686607908777
 0 <= xp_45_0 <= 24.2963172838272
 0 <= xp_45_1 <= 8.09877242794239
 0 <= xp_45_2 <= 8.09877242794239
 0 <= xp_46_0 <= 1527.67169381876
 0 <= xp_47_0 <= 836.329889579005
 0 <= xp_48_0 <= 2212.44421516031
 0 <= xp_48_1 <= 553.111053790078
 0 <= xp_49_0 <= 83.8085041498373
 0 <= xp_50_0 <= 597.052535771406
 0 <= xp_50_1 <= 149.263133942852
 0 <= xp_51_0 <= 675.169332982721
 0 <= xp_52_0 <= 630.287591044588
 0 <= xp_53_0 <= 144.574370958253
 0 <= xp_53_1 <= 36.1435927395633
 0 <= xp_54_0 <= 3514.5036665437
 0 <= xp_55_0 <= 1127.74779219127
 0 <= xp_56_0 <= 91.1425318129121
 0 <= xp_57_0 <= 196.07554299229
 0 <= xp_58_0 <= 2595.71924715266
 0 <= xp_58_1 <= 1730.47949810177
 0 <= xp_59_0 <= 10128.5429386947
 0 <= xp_60_0 <= 516.014664294286
 0 <= xp_60_1 <= 129.003666073572
 0 <= xp_61_0 <= 1381.69320132501
 0 <= xp_61_1 <= 921.128800883343
 0 <= xp_62_0 <= 124.866522263632
 0 <= xp_63_0 <= 100.344542590172
 0 <= xp_63_1 <= 25.0861356475429
 0 <= xp_64_0 <= 946.214936530886
 0 <= xp_65_0 <= 497.084097163957
 0 <= xp_66_0 <= 1598.62997855894
 0 <= xp_67_0 <= 308.004088250292
 0 <= xp_67_1 <= 77.001022062573
 0 <= xp_68_0 <= 280.398055918513
 0 <= xp_68_1 <= 841.19416775554
 0 <= xp_68_2 <= 280.398055918513
 0 <= xp_69_0 <= 1635.36280087143
 0 <= xp_70_0 <= 601.076848386529
 0 <= xp_71_0 <= 67.4479809014397
 0 <= xp_72_0 <= 570.048269811982
 0 <= xp_73_0 <= 878.328167649604
 0 <= xp_74_0 <= 907.10012232782
 0 <= xp_75_0 <= 1678.61475888444
 0 <= xp_76_0 <= 1638.74773671593
 0 <= xp_77_0 <= 435.578559189521
 0 <= xp_77_1 <= 108.89463979738
 0 <= xp_78_0 <= 5327.75111444311
 0 <= xp_78_1 <= 15983.2533433293
 0 <= xp_78_2 <= 5327.75111444311
 0 <= xp_79_0 <= 405.640682164867
 0 <= xp_79_1 <= 405.640682164867
 0 <= xp_79_2 <= 202.820341082434
 0 <= xp_80_0 <= 171.704004911918
 0 <= xp_80_1 <= 42.9260012279795
 0 <= xp_81_0 <= 198.683197272494
 0 <= xp_81_1 <= 49.6707993181235
 0 <= xp_82_0 <= 83.6956729550208
 0 <= xp_82_1 <= 83.6956729550208
 0 <= xp_82_2 <= 41.8478364775104
 0 <= xp_83_0 <= 383.726356771611
 0 <= xp_83_1 <= 95.9315891929028
 0 <= xp_84_0 <= 847.299589075057
 0 <= xp_85_0 <= 77.8159140251369
 0 <= xp_85_1 <= 155.631828050274
 0 <= xp_85_2 <= 77.8159140251369
 0 <= xp_85_3 <= 77.8159140251369
 0 <= xp_86_0 <= 163.229128501254
 0 <= xp_87_0 <= 134.519857820158
 0 <= xp_88_0 <= 242.92556244
 0 <= xp_88_1 <= 161.95037496
 0 <= xp_89_0 <= 2114.5819588561
 0 <= xp_90_0 <= 12399.1328295838
 0 <= xp_90_1 <= 4133.04427652795
 0 <= xp_90_2 <= 4133.04427652795
 0 <= xp_91_0 <= 1036.51750278239
 0 <= xp_91_1 <= 1036.51750278239
 0 <= xp_91_2 <= 518.258751391193
 0 <= xp_92_0 <= 38.2121646445332
 0 <= xp_92_1 <= 12.7373882148444
 0 <= xp_92_2 <= 12.7373882148444
 0 <= xp_93_0 <= 124.239682292429
 0 <= xp_94_0 <= 135.472654576386
 0 <= xp_94_1 <= 45.1575515254621
 0 <= xp_94_2 <= 45.1575515254621
 0 <= xp_95_0 <= 23.3685941264468
 0 <= xp_95_1 <= 11.6842970632234
 0 <= xp_95_2 <= 23.3685941264468
 0 <= xp_96_0 <= 87.958184759201
 0 <= xp_96_1 <= 21.9895461898002
 0 <= xp_97_0 <= 502.474920916302
 0 <= xp_98_0 <= 27.2550019479052
 0 <= xp_98_1 <= 54.5100038958104
 0 <= xp_98_2 <= 27.2550019479052
 0 <= xp_98_3 <= 27.2550019479052
 0 <= xp_99_0 <= 3.1216630565908
 0 <= xp_99_1 <= 9.3649891697724
 0 <= xp_99_2 <= 3.1216630565908
 0 <= xp_100_0 <= 479.469893973153
 0 <= xp_101_0 <= 190.559351245703
 0 <= xp_101_1 <= 47.6398378114258
 0 <= xp_102_0 <= 71.4597567171388
 0 <= xp_103_0 <= 1372.52880094603
 0 <= xp_104_0 <= 75.4464589339897
 0 <= xp_104_1 <= 50.2976392893265
 0 <= xp_105_0 <= 1105.74570920204
 0 <= xp_105_1 <= 276.436427300511
 0 <= xp_106_0 <= 7.89818363715744
 0 <= xp_106_1 <= 31.5927345486298
 0 <= xp_107_0 <= 428.758540302833
 0 <= xp_108_0 <= 485.663072888638
 0 <= xp_108_1 <= 323.775381925759
 0 <= xp_109_0 <= 552.948075397565
 0 <= xp_109_1 <= 368.632050265044
 0 <= xp_110_0 <= 126.997778165722
 0 <= xp_111_0 <= 2788.4349278993
 0 <= xp_112_0 <= 3570.33003437904
 0 <= xp_112_1 <= 892.58250859476
 0 <= xp_113_0 <= 405.565461368323
 0 <= xp_114_0 <= 2285.960006983
 0 <= xp_115_0 <= 168.494584259359
 0 <= xp_115_1 <= 42.1236460648397
 0 <= xp_116_0 <= 121.807543204161
 0 <= xp_116_1 <= 30.4518858010404
 0 <= xp_117_0 <= 1852.62553489038
 0 <= xp_118_0 <= 3007.57818183186
 0 <= xp_119_0 <= 35.9179303499303
 0 <= xp_119_1 <= 11.9726434499768
 0 <= xp_119_2 <= 11.9726434499768
 0 <= xp_120_0 <= 1654.75722958045
 0 <= xp_120_1 <= 413.689307395113
 0 <= xp_121_0 <= 72.0239126912214
 0 <= xp_122_0 <= 2168.67824837092
 0 <= xp_123_0 <= 391.900349996098
 0 <= xp_123_1 <= 97.9750874990245
 0 <= xp_124_0 <= 131.260289969902
 0 <= xp_125_0 <= 20.8110870439387
 0 <= xp_125_1 <= 5.20277176098466
 0 <= xp_126_0 <= 4839.09174649212
 0 <= xp_126_1 <= 9678.18349298425
 0 <= xp_126_2 <= 9678.18349298425
 0 <= xp_127_0 <= 329.95602404182
 0 <= xp_127_1 <= 219.970682694547
 0 <= xp_128_0 <= 154.87962008483
 0 <= xp_128_1 <= 232.319430127245
 0 <= xp_129_0 <= 37.3596622836971
 0 <= xp_129_1 <= 9.33991557092428
 0 <= xp_130_0 <= 384.817058321504
 0 <= xp_131_0 <= 292.784413749484
 0 <= xp_131_1 <= 292.784413749484
 0 <= xp_131_2 <= 146.392206874742

End
